p cnf 70 702
e 8 9 10 11 12 13 14 15 16 17 18 19 20 21 22 23 24 25 26 27 28 29 30 31 32 33 34 35 36 37 38 39 40 41 42 43 44 45 46 47 48 49 50 51 52 53 54 55 56 57 58 59 60 0
a 1 2 3 4 5 6 7 0
e 61 62 63 64 65 66 67 68 69 70 0
-61 7 6 5 4 3 2 -1 0
-61 7 6 5 4 3 2 1 0
-61 7 6 5 4 3 -2 -1 0
-61 7 6 5 4 3 -2 1 0
-61 7 6 5 4 -3 2 -1 0
-61 7 6 5 4 -3 2 1 0
61 7 6 5 4 -3 -2 -1 0
-61 7 6 5 4 -3 -2 1 0
-61 7 6 5 -4 3 2 -1 0
-61 7 6 5 -4 3 2 1 0
-61 7 6 5 -4 3 -2 -1 0
-61 7 6 5 -4 3 -2 1 0
-61 7 6 5 -4 -3 2 -1 0
-61 7 6 5 -4 -3 2 1 0
61 7 6 5 -4 -3 -2 -1 0
-61 7 6 5 -4 -3 -2 1 0
-61 7 6 -5 4 3 2 -1 0
-61 7 6 -5 4 3 2 1 0
-61 7 6 -5 4 3 -2 -1 0
-61 7 6 -5 4 3 -2 1 0
-61 7 6 -5 4 -3 2 -1 0
-61 7 6 -5 4 -3 2 1 0
61 7 6 -5 4 -3 -2 -1 0
-61 7 6 -5 4 -3 -2 1 0
61 7 6 -5 -4 3 2 -1 0
61 7 6 -5 -4 3 2 1 0
61 7 6 -5 -4 3 -2 -1 0
61 7 6 -5 -4 3 -2 1 0
61 7 6 -5 -4 -3 2 -1 0
61 7 6 -5 -4 -3 2 1 0
61 7 6 -5 -4 -3 -2 -1 0
61 7 6 -5 -4 -3 -2 1 0
-61 7 -6 5 4 3 2 -1 0
-61 7 -6 5 4 3 2 1 0
-61 7 -6 5 4 3 -2 -1 0
-61 7 -6 5 4 3 -2 1 0
-61 7 -6 5 4 -3 2 -1 0
-61 7 -6 5 4 -3 2 1 0
61 7 -6 5 4 -3 -2 -1 0
-61 7 -6 5 4 -3 -2 1 0
-61 7 -6 5 -4 3 2 -1 0
-61 7 -6 5 -4 3 2 1 0
-61 7 -6 5 -4 3 -2 -1 0
-61 7 -6 5 -4 3 -2 1 0
-61 7 -6 5 -4 -3 2 -1 0
-61 7 -6 5 -4 -3 2 1 0
61 7 -6 5 -4 -3 -2 -1 0
-61 7 -6 5 -4 -3 -2 1 0
-61 7 -6 -5 4 3 2 -1 0
-61 7 -6 -5 4 3 2 1 0
-61 7 -6 -5 4 3 -2 -1 0
-61 7 -6 -5 4 3 -2 1 0
-61 7 -6 -5 4 -3 2 -1 0
-61 7 -6 -5 4 -3 2 1 0
61 7 -6 -5 4 -3 -2 -1 0
-61 7 -6 -5 4 -3 -2 1 0
61 7 -6 -5 -4 3 2 -1 0
61 7 -6 -5 -4 3 2 1 0
61 7 -6 -5 -4 3 -2 -1 0
61 7 -6 -5 -4 3 -2 1 0
61 7 -6 -5 -4 -3 2 -1 0
61 7 -6 -5 -4 -3 2 1 0
61 7 -6 -5 -4 -3 -2 -1 0
61 7 -6 -5 -4 -3 -2 1 0
-61 -7 6 5 4 3 2 -1 0
-61 -7 6 5 4 3 2 1 0
-61 -7 6 5 4 3 -2 -1 0
-61 -7 6 5 4 3 -2 1 0
-61 -7 6 5 4 -3 2 -1 0
-61 -7 6 5 4 -3 2 1 0
61 -7 6 5 4 -3 -2 -1 0
61 -7 6 5 4 -3 -2 1 0
-61 -7 6 5 -4 3 2 -1 0
-61 -7 6 5 -4 3 2 1 0
-61 -7 6 5 -4 3 -2 -1 0
-61 -7 6 5 -4 3 -2 1 0
-61 -7 6 5 -4 -3 2 -1 0
-61 -7 6 5 -4 -3 2 1 0
61 -7 6 5 -4 -3 -2 -1 0
61 -7 6 5 -4 -3 -2 1 0
-61 -7 6 -5 4 3 2 -1 0
-61 -7 6 -5 4 3 2 1 0
-61 -7 6 -5 4 3 -2 -1 0
-61 -7 6 -5 4 3 -2 1 0
-61 -7 6 -5 4 -3 2 -1 0
-61 -7 6 -5 4 -3 2 1 0
61 -7 6 -5 4 -3 -2 -1 0
61 -7 6 -5 4 -3 -2 1 0
61 -7 6 -5 -4 3 2 -1 0
61 -7 6 -5 -4 3 2 1 0
61 -7 6 -5 -4 3 -2 -1 0
61 -7 6 -5 -4 3 -2 1 0
61 -7 6 -5 -4 -3 2 -1 0
61 -7 6 -5 -4 -3 2 1 0
61 -7 6 -5 -4 -3 -2 -1 0
61 -7 6 -5 -4 -3 -2 1 0
61 -7 -6 5 4 3 2 -1 0
61 -7 -6 5 4 3 2 1 0
61 -7 -6 5 4 3 -2 -1 0
61 -7 -6 5 4 3 -2 1 0
61 -7 -6 5 4 -3 2 -1 0
61 -7 -6 5 4 -3 2 1 0
61 -7 -6 5 4 -3 -2 -1 0
61 -7 -6 5 4 -3 -2 1 0
61 -7 -6 5 -4 3 2 -1 0
61 -7 -6 5 -4 3 2 1 0
61 -7 -6 5 -4 3 -2 -1 0
61 -7 -6 5 -4 3 -2 1 0
61 -7 -6 5 -4 -3 2 -1 0
61 -7 -6 5 -4 -3 2 1 0
61 -7 -6 5 -4 -3 -2 -1 0
61 -7 -6 5 -4 -3 -2 1 0
61 -7 -6 -5 4 3 2 -1 0
61 -7 -6 -5 4 3 2 1 0
61 -7 -6 -5 4 3 -2 -1 0
61 -7 -6 -5 4 3 -2 1 0
61 -7 -6 -5 4 -3 2 -1 0
61 -7 -6 -5 4 -3 2 1 0
61 -7 -6 -5 4 -3 -2 -1 0
61 -7 -6 -5 4 -3 -2 1 0
61 -7 -6 -5 -4 3 2 -1 0
61 -7 -6 -5 -4 3 2 1 0
61 -7 -6 -5 -4 3 -2 -1 0
61 -7 -6 -5 -4 3 -2 1 0
61 -7 -6 -5 -4 -3 2 -1 0
61 -7 -6 -5 -4 -3 2 1 0
61 -7 -6 -5 -4 -3 -2 -1 0
61 -7 -6 -5 -4 -3 -2 1 0
48 47 46 -43 42 41 40 0
48 47 46 -44 43 42 41 40 0
48 47 46 -45 44 43 42 41 40 0
45 44 43 42 41 40 0
54 53 52 -49 42 41 40 0
54 53 52 -50 49 42 41 40 0
54 53 52 -51 50 49 42 41 40 0
51 50 49 42 41 40 0
60 59 58 -55 42 41 40 0
60 59 58 -56 55 42 41 40 0
60 59 58 -57 56 55 42 41 40 0
57 56 55 42 41 40 0
51 50 49 -46 45 44 43 0
51 50 49 -47 46 45 44 43 0
51 50 49 -48 47 46 45 44 43 0
48 47 46 45 44 43 0
57 56 55 -52 45 44 43 0
57 56 55 -53 52 45 44 43 0
57 56 55 -54 53 52 45 44 43 0
54 53 52 45 44 43 0
51 50 49 48 47 46 -43 0
51 50 49 48 47 46 -44 43 0
51 50 49 48 47 46 -45 44 43 0
60 59 58 -46 45 44 43 0
60 59 58 -47 46 45 44 43 0
60 59 58 -48 47 46 45 44 43 0
60 59 58 -49 48 47 46 45 44 43 0
60 59 58 -50 49 48 47 46 45 44 43 0
60 59 58 -51 50 49 48 47 46 45 44 43 0
51 50 49 48 47 46 45 44 43 0
57 56 55 -52 48 47 46 0
57 56 55 -53 52 48 47 46 0
57 56 55 -54 53 52 48 47 46 0
54 53 52 48 47 46 0
54 53 52 51 50 49 -46 0
54 53 52 51 50 49 -47 46 0
54 53 52 51 50 49 -48 47 46 0
60 59 58 -49 48 47 46 0
60 59 58 -50 49 48 47 46 0
60 59 58 -51 50 49 48 47 46 0
60 59 58 -52 51 50 49 48 47 46 0
60 59 58 -53 52 51 50 49 48 47 46 0
60 59 58 -54 53 52 51 50 49 48 47 46 0
54 53 52 51 50 49 48 47 46 0
60 59 58 -55 51 50 49 0
60 59 58 -56 55 51 50 49 0
60 59 58 -57 56 55 51 50 49 0
57 56 55 51 50 49 0
60 59 58 -55 54 53 52 0
60 59 58 -56 55 54 53 52 0
60 59 58 -57 56 55 54 53 52 0
57 56 55 54 53 52 0
60 59 58 57 56 55 -41 -40 0
60 59 58 57 56 55 -42 41 -40 0
60 59 58 57 56 55 -44 -43 42 41 -40 0
60 59 58 57 56 55 -45 44 -43 42 41 -40 0
45 44 -43 42 41 -40 0
60 59 58 57 56 55 43 42 41 -40 0
60 59 58 57 56 55 40 0
51 50 -49 -47 -46 42 41 -40 0
51 50 -49 -48 47 -46 42 41 -40 0
48 47 -46 42 41 -40 0
51 50 -49 46 42 41 -40 0
57 56 -55 -53 -52 42 41 -40 0
57 56 -55 -54 53 -52 42 41 -40 0
54 53 -52 42 41 -40 0
57 56 -55 52 42 41 -40 0
48 47 -46 45 44 -43 -41 -40 0
48 47 -46 45 44 -43 -42 41 -40 0
60 59 -58 -44 -43 42 41 -40 0
60 59 -58 -45 44 -43 42 41 -40 0
60 59 -58 -47 -46 45 44 -43 42 41 -40 0
60 59 -58 -48 47 -46 45 44 -43 42 41 -40 0
48 47 -46 45 44 -43 42 41 -40 0
60 59 -58 46 45 44 -43 42 41 -40 0
60 59 -58 43 42 41 -40 0
48 47 -46 45 44 -43 40 0
54 53 -52 -50 -49 45 44 -43 0
54 53 -52 -51 50 -49 45 44 -43 0
51 50 -49 45 44 -43 0
54 53 -52 49 45 44 -43 0
60 59 -58 -56 -55 45 44 -43 0
60 59 -58 -57 56 -55 45 44 -43 0
57 56 -55 45 44 -43 0
60 59 -58 55 45 44 -43 0
54 53 -52 -50 -49 48 47 -46 0
54 53 -52 -51 50 -49 48 47 -46 0
51 50 -49 48 47 -46 0
54 53 -52 49 48 47 -46 0
60 59 -58 -56 -55 48 47 -46 0
60 59 -58 -57 56 -55 48 47 -46 0
57 56 -55 48 47 -46 0
60 59 -58 55 48 47 -46 0
57 56 -55 -53 -52 51 50 -49 0
57 56 -55 -54 53 -52 51 50 -49 0
54 53 -52 51 50 -49 0
57 56 -55 52 51 50 -49 0
57 56 -55 54 53 -52 -50 -49 0
57 56 -55 54 53 -52 -51 50 -49 0
60 59 -58 -53 -52 51 50 -49 0
60 59 -58 -54 53 -52 51 50 -49 0
60 59 -58 -56 -55 54 53 -52 51 50 -49 0
60 59 -58 -57 56 -55 54 53 -52 51 50 -49 0
57 56 -55 54 53 -52 51 50 -49 0
60 59 -58 55 54 53 -52 51 50 -49 0
60 59 -58 52 51 50 -49 0
57 56 -55 54 53 -52 49 0
60 59 -58 57 56 -55 -53 -52 0
60 59 -58 57 56 -55 -54 53 -52 0
60 59 -58 -56 -55 54 53 -52 0
60 59 -58 -57 56 -55 54 53 -52 0
60 59 -58 57 56 -55 54 53 -52 0
60 59 -58 55 54 53 -52 0
60 59 -58 57 56 -55 52 0
48 -47 46 -43 42 -41 40 0
48 -47 46 -45 -44 43 42 -41 40 0
45 -44 43 42 -41 40 0
48 -47 46 44 43 42 -41 40 0
54 -53 52 -49 42 -41 40 0
54 -53 52 -51 -50 49 42 -41 40 0
51 -50 49 42 -41 40 0
54 -53 52 50 49 42 -41 40 0
60 -59 58 -55 42 -41 40 0
60 -59 58 -57 -56 55 42 -41 40 0
57 -56 55 42 -41 40 0
60 -59 58 56 55 42 -41 40 0
51 -50 49 -46 45 -44 43 0
51 -50 49 -48 -47 46 45 -44 43 0
48 -47 46 45 -44 43 0
51 -50 49 47 46 45 -44 43 0
57 -56 55 -52 45 -44 43 0
57 -56 55 -54 -53 52 45 -44 43 0
54 -53 52 45 -44 43 0
57 -56 55 53 52 45 -44 43 0
51 -50 49 48 -47 46 -43 0
51 -50 49 48 -47 46 -45 -44 43 0
60 -59 58 -46 45 -44 43 0
60 -59 58 -48 -47 46 45 -44 43 0
60 -59 58 -49 48 -47 46 45 -44 43 0
60 -59 58 -51 -50 49 48 -47 46 45 -44 43 0
51 -50 49 48 -47 46 45 -44 43 0
60 -59 58 50 49 48 -47 46 45 -44 43 0
60 -59 58 47 46 45 -44 43 0
51 -50 49 48 -47 46 44 43 0
57 -56 55 -52 48 -47 46 0
57 -56 55 -54 -53 52 48 -47 46 0
54 -53 52 48 -47 46 0
57 -56 55 53 52 48 -47 46 0
54 -53 52 51 -50 49 -46 0
54 -53 52 51 -50 49 -48 -47 46 0
60 -59 58 -49 48 -47 46 0
60 -59 58 -51 -50 49 48 -47 46 0
60 -59 58 -52 51 -50 49 48 -47 46 0
60 -59 58 -54 -53 52 51 -50 49 48 -47 46 0
54 -53 52 51 -50 49 48 -47 46 0
60 -59 58 53 52 51 -50 49 48 -47 46 0
60 -59 58 50 49 48 -47 46 0
54 -53 52 51 -50 49 47 46 0
60 -59 58 -55 51 -50 49 0
60 -59 58 -57 -56 55 51 -50 49 0
57 -56 55 51 -50 49 0
60 -59 58 56 55 51 -50 49 0
60 -59 58 -55 54 -53 52 0
60 -59 58 -57 -56 55 54 -53 52 0
57 -56 55 54 -53 52 0
60 -59 58 56 55 54 -53 52 0
60 -59 58 57 -56 55 -42 -41 -40 0
60 -59 58 57 -56 55 -45 -44 -43 42 -41 -40 0
45 -44 -43 42 -41 -40 0
60 -59 58 57 -56 55 44 -43 42 -41 -40 0
60 -59 58 57 -56 55 43 42 -41 -40 0
60 -59 58 57 -56 55 41 -40 0
60 -59 58 57 -56 55 40 0
51 -50 -49 -48 -47 -46 42 -41 -40 0
48 -47 -46 42 -41 -40 0
51 -50 -49 47 -46 42 -41 -40 0
51 -50 -49 46 42 -41 -40 0
57 -56 -55 -54 -53 -52 42 -41 -40 0
54 -53 -52 42 -41 -40 0
57 -56 -55 53 -52 42 -41 -40 0
57 -56 -55 52 42 -41 -40 0
48 -47 -46 45 -44 -43 -42 -41 -40 0
60 -59 -58 -45 -44 -43 42 -41 -40 0
60 -59 -58 -48 -47 -46 45 -44 -43 42 -41 -40 0
48 -47 -46 45 -44 -43 42 -41 -40 0
60 -59 -58 47 -46 45 -44 -43 42 -41 -40 0
60 -59 -58 46 45 -44 -43 42 -41 -40 0
60 -59 -58 44 -43 42 -41 -40 0
60 -59 -58 43 42 -41 -40 0
48 -47 -46 45 -44 -43 41 -40 0
48 -47 -46 45 -44 -43 40 0
54 -53 -52 -51 -50 -49 45 -44 -43 0
51 -50 -49 45 -44 -43 0
54 -53 -52 50 -49 45 -44 -43 0
54 -53 -52 49 45 -44 -43 0
60 -59 -58 -57 -56 -55 45 -44 -43 0
57 -56 -55 45 -44 -43 0
60 -59 -58 56 -55 45 -44 -43 0
60 -59 -58 55 45 -44 -43 0
54 -53 -52 -51 -50 -49 48 -47 -46 0
51 -50 -49 48 -47 -46 0
54 -53 -52 50 -49 48 -47 -46 0
54 -53 -52 49 48 -47 -46 0
60 -59 -58 -57 -56 -55 48 -47 -46 0
57 -56 -55 48 -47 -46 0
60 -59 -58 56 -55 48 -47 -46 0
60 -59 -58 55 48 -47 -46 0
57 -56 -55 -54 -53 -52 51 -50 -49 0
54 -53 -52 51 -50 -49 0
57 -56 -55 53 -52 51 -50 -49 0
57 -56 -55 52 51 -50 -49 0
57 -56 -55 54 -53 -52 -51 -50 -49 0
60 -59 -58 -54 -53 -52 51 -50 -49 0
60 -59 -58 -57 -56 -55 54 -53 -52 51 -50 -49 0
57 -56 -55 54 -53 -52 51 -50 -49 0
60 -59 -58 56 -55 54 -53 -52 51 -50 -49 0
60 -59 -58 55 54 -53 -52 51 -50 -49 0
60 -59 -58 53 -52 51 -50 -49 0
60 -59 -58 52 51 -50 -49 0
57 -56 -55 54 -53 -52 50 -49 0
57 -56 -55 54 -53 -52 49 0
60 -59 -58 57 -56 -55 -54 -53 -52 0
60 -59 -58 -57 -56 -55 54 -53 -52 0
60 -59 -58 57 -56 -55 54 -53 -52 0
60 -59 -58 56 -55 54 -53 -52 0
60 -59 -58 55 54 -53 -52 0
60 -59 -58 57 -56 -55 53 -52 0
60 -59 -58 57 -56 -55 52 0
-48 47 46 -43 -42 41 40 0
-48 47 46 -44 43 -42 41 40 0
-45 44 43 -42 41 40 0
-48 47 46 45 44 43 -42 41 40 0
-54 53 52 -49 -42 41 40 0
-54 53 52 -50 49 -42 41 40 0
-51 50 49 -42 41 40 0
-54 53 52 51 50 49 -42 41 40 0
-60 59 58 -55 -42 41 40 0
-60 59 58 -56 55 -42 41 40 0
-57 56 55 -42 41 40 0
-60 59 58 57 56 55 -42 41 40 0
-51 50 49 -46 -45 44 43 0
-51 50 49 -47 46 -45 44 43 0
-48 47 46 -45 44 43 0
-51 50 49 48 47 46 -45 44 43 0
-57 56 55 -52 -45 44 43 0
-57 56 55 -53 52 -45 44 43 0
-54 53 52 -45 44 43 0
-57 56 55 54 53 52 -45 44 43 0
-51 50 49 -48 47 46 -43 0
-51 50 49 -48 47 46 -44 43 0
-60 59 58 -46 -45 44 43 0
-60 59 58 -47 46 -45 44 43 0
-60 59 58 -49 -48 47 46 -45 44 43 0
-60 59 58 -50 49 -48 47 46 -45 44 43 0
-51 50 49 -48 47 46 -45 44 43 0
-60 59 58 51 50 49 -48 47 46 -45 44 43 0
-60 59 58 48 47 46 -45 44 43 0
-51 50 49 -48 47 46 45 44 43 0
-57 56 55 -52 -48 47 46 0
-57 56 55 -53 52 -48 47 46 0
-54 53 52 -48 47 46 0
-57 56 55 54 53 52 -48 47 46 0
-54 53 52 -51 50 49 -46 0
-54 53 52 -51 50 49 -47 46 0
-60 59 58 -49 -48 47 46 0
-60 59 58 -50 49 -48 47 46 0
-60 59 58 -52 -51 50 49 -48 47 46 0
-60 59 58 -53 52 -51 50 49 -48 47 46 0
-54 53 52 -51 50 49 -48 47 46 0
-60 59 58 54 53 52 -51 50 49 -48 47 46 0
-60 59 58 51 50 49 -48 47 46 0
-54 53 52 -51 50 49 48 47 46 0
-60 59 58 -55 -51 50 49 0
-60 59 58 -56 55 -51 50 49 0
-57 56 55 -51 50 49 0
-60 59 58 57 56 55 -51 50 49 0
-60 59 58 -55 -54 53 52 0
-60 59 58 -56 55 -54 53 52 0
-57 56 55 -54 53 52 0
-60 59 58 57 56 55 -54 53 52 0
-60 59 58 -57 56 55 -41 -40 0
-60 59 58 -57 56 55 -44 -43 -42 41 -40 0
-45 44 -43 -42 41 -40 0
-60 59 58 -57 56 55 45 44 -43 -42 41 -40 0
-60 59 58 -57 56 55 43 -42 41 -40 0
-60 59 58 -57 56 55 42 41 -40 0
-60 59 58 -57 56 55 40 0
-51 50 -49 -47 -46 -42 41 -40 0
-48 47 -46 -42 41 -40 0
-51 50 -49 48 47 -46 -42 41 -40 0
-51 50 -49 46 -42 41 -40 0
-57 56 -55 -53 -52 -42 41 -40 0
-54 53 -52 -42 41 -40 0
-57 56 -55 54 53 -52 -42 41 -40 0
-57 56 -55 52 -42 41 -40 0
-48 47 -46 -45 44 -43 -41 -40 0
-60 59 -58 -44 -43 -42 41 -40 0
-60 59 -58 -47 -46 -45 44 -43 -42 41 -40 0
-48 47 -46 -45 44 -43 -42 41 -40 0
-60 59 -58 48 47 -46 -45 44 -43 -42 41 -40 0
-60 59 -58 46 -45 44 -43 -42 41 -40 0
-60 59 -58 45 44 -43 -42 41 -40 0
-60 59 -58 43 -42 41 -40 0
-48 47 -46 -45 44 -43 42 41 -40 0
-48 47 -46 -45 44 -43 40 0
-54 53 -52 -50 -49 -45 44 -43 0
-51 50 -49 -45 44 -43 0
-54 53 -52 51 50 -49 -45 44 -43 0
-54 53 -52 49 -45 44 -43 0
-60 59 -58 -56 -55 -45 44 -43 0
-57 56 -55 -45 44 -43 0
-60 59 -58 57 56 -55 -45 44 -43 0
-60 59 -58 55 -45 44 -43 0
-54 53 -52 -50 -49 -48 47 -46 0
-51 50 -49 -48 47 -46 0
-54 53 -52 51 50 -49 -48 47 -46 0
-54 53 -52 49 -48 47 -46 0
-60 59 -58 -56 -55 -48 47 -46 0
-57 56 -55 -48 47 -46 0
-60 59 -58 57 56 -55 -48 47 -46 0
-60 59 -58 55 -48 47 -46 0
-57 56 -55 -53 -52 -51 50 -49 0
-54 53 -52 -51 50 -49 0
-57 56 -55 54 53 -52 -51 50 -49 0
-57 56 -55 52 -51 50 -49 0
-57 56 -55 -54 53 -52 -50 -49 0
-60 59 -58 -53 -52 -51 50 -49 0
-60 59 -58 -56 -55 -54 53 -52 -51 50 -49 0
-57 56 -55 -54 53 -52 -51 50 -49 0
-60 59 -58 57 56 -55 -54 53 -52 -51 50 -49 0
-60 59 -58 55 -54 53 -52 -51 50 -49 0
-60 59 -58 54 53 -52 -51 50 -49 0
-60 59 -58 52 -51 50 -49 0
-57 56 -55 -54 53 -52 51 50 -49 0
-57 56 -55 -54 53 -52 49 0
-60 59 -58 -57 56 -55 -53 -52 0
-60 59 -58 -56 -55 -54 53 -52 0
-60 59 -58 -57 56 -55 -54 53 -52 0
-60 59 -58 57 56 -55 -54 53 -52 0
-60 59 -58 55 -54 53 -52 0
-60 59 -58 -57 56 -55 54 53 -52 0
-60 59 -58 -57 56 -55 52 0
-48 -47 46 -43 -42 -41 40 0
-45 -44 43 -42 -41 40 0
-48 -47 46 45 -44 43 -42 -41 40 0
-48 -47 46 44 43 -42 -41 40 0
-54 -53 52 -49 -42 -41 40 0
-51 -50 49 -42 -41 40 0
-54 -53 52 51 -50 49 -42 -41 40 0
-54 -53 52 50 49 -42 -41 40 0
-60 -59 58 -55 -42 -41 40 0
-57 -56 55 -42 -41 40 0
-60 -59 58 57 -56 55 -42 -41 40 0
-60 -59 58 56 55 -42 -41 40 0
-51 -50 49 -46 -45 -44 43 0
-48 -47 46 -45 -44 43 0
-51 -50 49 48 -47 46 -45 -44 43 0
-51 -50 49 47 46 -45 -44 43 0
-57 -56 55 -52 -45 -44 43 0
-54 -53 52 -45 -44 43 0
-57 -56 55 54 -53 52 -45 -44 43 0
-57 -56 55 53 52 -45 -44 43 0
-51 -50 49 -48 -47 46 -43 0
-60 -59 58 -46 -45 -44 43 0
-60 -59 58 -49 -48 -47 46 -45 -44 43 0
-51 -50 49 -48 -47 46 -45 -44 43 0
-60 -59 58 51 -50 49 -48 -47 46 -45 -44 43 0
-60 -59 58 50 49 -48 -47 46 -45 -44 43 0
-60 -59 58 48 -47 46 -45 -44 43 0
-60 -59 58 47 46 -45 -44 43 0
-51 -50 49 -48 -47 46 45 -44 43 0
-51 -50 49 -48 -47 46 44 43 0
-57 -56 55 -52 -48 -47 46 0
-54 -53 52 -48 -47 46 0
-57 -56 55 54 -53 52 -48 -47 46 0
-57 -56 55 53 52 -48 -47 46 0
-54 -53 52 -51 -50 49 -46 0
-60 -59 58 -49 -48 -47 46 0
-60 -59 58 -52 -51 -50 49 -48 -47 46 0
-54 -53 52 -51 -50 49 -48 -47 46 0
-60 -59 58 54 -53 52 -51 -50 49 -48 -47 46 0
-60 -59 58 53 52 -51 -50 49 -48 -47 46 0
-60 -59 58 51 -50 49 -48 -47 46 0
-60 -59 58 50 49 -48 -47 46 0
-54 -53 52 -51 -50 49 48 -47 46 0
-54 -53 52 -51 -50 49 47 46 0
-60 -59 58 -55 -51 -50 49 0
-57 -56 55 -51 -50 49 0
-60 -59 58 57 -56 55 -51 -50 49 0
-60 -59 58 56 55 -51 -50 49 0
-60 -59 58 -55 -54 -53 52 0
-57 -56 55 -54 -53 52 0
-60 -59 58 57 -56 55 -54 -53 52 0
-60 -59 58 56 55 -54 -53 52 0
-42 -41 -40 0
-60 -59 58 -57 -56 55 42 -41 -40 0
-60 -59 58 -57 -56 55 41 -40 0
-60 -59 58 -57 -56 55 40 0
-45 -44 -43 0
-48 -47 -46 45 -44 -43 0
-48 -47 -46 44 -43 0
-48 -47 -46 43 0
-51 -50 -49 0
-54 -53 -52 51 -50 -49 0
-54 -53 -52 50 -49 0
-54 -53 -52 49 0
-57 -56 -55 0
-60 -59 -58 57 -56 -55 0
-60 -59 -58 56 -55 0
-60 -59 -58 55 0
62 42 41 40 -1 0
-62 42 41 40 1 0
62 42 41 -40 -2 0
-62 42 41 -40 2 0
62 42 -41 40 -3 0
-62 42 -41 40 3 0
62 42 -41 -40 -4 0
-62 42 -41 -40 4 0
62 -42 41 40 -5 0
-62 -42 41 40 5 0
62 -42 41 -40 -6 0
-62 -42 41 -40 6 0
62 -42 -41 40 -7 0
-62 -42 -41 40 7 0
63 45 44 43 -1 0
-63 45 44 43 1 0
63 45 44 -43 -2 0
-63 45 44 -43 2 0
63 45 -44 43 -3 0
-63 45 -44 43 3 0
63 45 -44 -43 -4 0
-63 45 -44 -43 4 0
63 -45 44 43 -5 0
-63 -45 44 43 5 0
63 -45 44 -43 -6 0
-63 -45 44 -43 6 0
63 -45 -44 43 -7 0
-63 -45 -44 43 7 0
64 48 47 46 -1 0
-64 48 47 46 1 0
64 48 47 -46 -2 0
-64 48 47 -46 2 0
64 48 -47 46 -3 0
-64 48 -47 46 3 0
64 48 -47 -46 -4 0
-64 48 -47 -46 4 0
64 -48 47 46 -5 0
-64 -48 47 46 5 0
64 -48 47 -46 -6 0
-64 -48 47 -46 6 0
64 -48 -47 46 -7 0
-64 -48 -47 46 7 0
65 51 50 49 -1 0
-65 51 50 49 1 0
65 51 50 -49 -2 0
-65 51 50 -49 2 0
65 51 -50 49 -3 0
-65 51 -50 49 3 0
65 51 -50 -49 -4 0
-65 51 -50 -49 4 0
65 -51 50 49 -5 0
-65 -51 50 49 5 0
65 -51 50 -49 -6 0
-65 -51 50 -49 6 0
65 -51 -50 49 -7 0
-65 -51 -50 49 7 0
66 54 53 52 -1 0
-66 54 53 52 1 0
66 54 53 -52 -2 0
-66 54 53 -52 2 0
66 54 -53 52 -3 0
-66 54 -53 52 3 0
66 54 -53 -52 -4 0
-66 54 -53 -52 4 0
66 -54 53 52 -5 0
-66 -54 53 52 5 0
66 -54 53 -52 -6 0
-66 -54 53 -52 6 0
66 -54 -53 52 -7 0
-66 -54 -53 52 7 0
67 57 56 55 -1 0
-67 57 56 55 1 0
67 57 56 -55 -2 0
-67 57 56 -55 2 0
67 57 -56 55 -3 0
-67 57 -56 55 3 0
67 57 -56 -55 -4 0
-67 57 -56 -55 4 0
67 -57 56 55 -5 0
-67 -57 56 55 5 0
67 -57 56 -55 -6 0
-67 -57 56 -55 6 0
67 -57 -56 55 -7 0
-67 -57 -56 55 7 0
68 60 59 58 -1 0
-68 60 59 58 1 0
68 60 59 -58 -2 0
-68 60 59 -58 2 0
68 60 -59 58 -3 0
-68 60 -59 58 3 0
68 60 -59 -58 -4 0
-68 60 -59 -58 4 0
68 -60 59 58 -5 0
-68 -60 59 58 5 0
68 -60 59 -58 -6 0
-68 -60 59 -58 6 0
68 -60 -59 58 -7 0
-68 -60 -59 58 7 0
69 65 64 63 62 -8 0
-69 65 64 63 62 8 0
69 65 64 63 -62 -9 0
-69 65 64 63 -62 9 0
69 65 64 -63 62 -10 0
-69 65 64 -63 62 10 0
69 65 64 -63 -62 -11 0
-69 65 64 -63 -62 11 0
69 65 -64 63 62 -12 0
-69 65 -64 63 62 12 0
69 65 -64 63 -62 -13 0
-69 65 -64 63 -62 13 0
69 65 -64 -63 62 -14 0
-69 65 -64 -63 62 14 0
69 65 -64 -63 -62 -15 0
-69 65 -64 -63 -62 15 0
69 -65 64 63 62 -16 0
-69 -65 64 63 62 16 0
69 -65 64 63 -62 -17 0
-69 -65 64 63 -62 17 0
69 -65 64 -63 62 -18 0
-69 -65 64 -63 62 18 0
69 -65 64 -63 -62 -19 0
-69 -65 64 -63 -62 19 0
69 -65 -64 63 62 -20 0
-69 -65 -64 63 62 20 0
69 -65 -64 63 -62 -21 0
-69 -65 -64 63 -62 21 0
69 -65 -64 -63 62 -22 0
-69 -65 -64 -63 62 22 0
69 -65 -64 -63 -62 -23 0
-69 -65 -64 -63 -62 23 0
70 69 68 67 66 -24 0
-70 69 68 67 66 24 0
70 -69 68 67 66 -25 0
-70 -69 68 67 66 25 0
70 69 68 67 -66 -26 0
-70 69 68 67 -66 26 0
70 -69 68 67 -66 -27 0
-70 -69 68 67 -66 27 0
70 69 68 -67 66 -28 0
-70 69 68 -67 66 28 0
70 -69 68 -67 66 -29 0
-70 -69 68 -67 66 29 0
70 69 68 -67 -66 -30 0
-70 69 68 -67 -66 30 0
70 -69 68 -67 -66 -31 0
-70 -69 68 -67 -66 31 0
70 69 -68 67 66 -32 0
-70 69 -68 67 66 32 0
70 -69 -68 67 66 -33 0
-70 -69 -68 67 66 33 0
70 69 -68 67 -66 -34 0
-70 69 -68 67 -66 34 0
70 -69 -68 67 -66 -35 0
-70 -69 -68 67 -66 35 0
70 69 -68 -67 66 -36 0
-70 69 -68 -67 66 36 0
70 -69 -68 -67 66 -37 0
-70 -69 -68 -67 66 37 0
70 69 -68 -67 -66 -38 0
-70 69 -68 -67 -66 38 0
70 -69 -68 -67 -66 -39 0
-70 -69 -68 -67 -66 39 0
70 -61 0
-70 61 0

